sat
(:max-memory          18.43
 :memory              17.66
 :num-allocs          295558601
 :rlimit-count        4068499
 :sls-constraints     2653
 :sls-ddfw-flips      2413787.00
 :sls-ddfw-reinits    22
 :sls-ddfw-restarts   244
 :sls-ddfw-shifts     1299830.00
 :sls-euf-conflict    2653
 :solve-eqs-elim-vars 5
 :solve-eqs-steps     12
 :time                2.47
 :total-time          2.40)
